010000011100100000000100 8386234 1
010001011111100000000100 11377941 2
100000011110011001011011 12479238 6
000101001111011011000011 12736019 13
000101001110110100011100 13233750 51
110111000010100110011111 13288685 1743
